32      4       
14      14      12      14      
0       0       0       0       0       8       2       25      26      27      28      29      30      31      
3       8       6       1       6       1       3       
10      8       5       1       5       2       24      4       
4       1       1       5       1       3       23      22      5       
9       12      6       5       9       1       6       
2       2       1       1       1       2       21      7       
7       4       7       1       6       3       20      19      8       
6       3       4       1       1       2       18      9       
3       6       1       1       1       2       17      10      
6       1       6       1       6       1       11      
2       5       2       7       3       1       12      
1       2       6       6       7       1       13      
1       2       3       5       2       1       14      
6       1       7       1       7       1       15      
1       1       1       1       1       1       16      
10      2       1       1       6       1       32      
10      4       2       5       1       1       32      
7       7       7       1       1       1       32      
8       5       1       1       1       1       32      
7       1       1       5       6       1       32      
8       1       1       1       4       1       32      
9       4       1       4       1       1       32      
4       1       3       1       1       1       32      
10      1       13      7       8       1       32      
4       6       1       10      1       1       32      
9       7       4       6       1       1       32      
3       4       1       1       1       1       32      
8       1       3       6       1       1       32      
5       1       3       2       7       1       32      
2       3       3       1       8       1       32      
6       1       4       1       1       1       32      
0       0       0       0       0       0       
